
  22   10
  10   10   10   10   10   10   10   10   10   10

   0   0   0   0   0   0   0   0   0   0   0   6 2 4 5 8 9 21 
   2   0   0   0   0   0   0   0   0  10   0   2 12 3 
   3   0  10   0   0   0   0   0   0   0   0   3 20 11 6 
   1  10   0   0   0   0   0   0   0   0   0   3 20 11 6 
   1   0   0   0   0  10   0   0   0   0   0   7 19 18 17 16 12 11 10 
   9   0   0   0   0   0   0   0  10   0   0   3 19 17 7 
   1   0   0   0   0   0   0  10   0   0   0   5 18 16 14 13 10 
   8   0   0  10   0   0   0   0   0   0   0   5 20 17 16 13 11 
   8   0   0   0  10   0   0   0   0   0   0   3 12 11 10 
   3   0   0   0   0   0   0   0   0  10   0   1 15 
   2   0   0   0   0   0   0   0   0   0  10   1 14 
   8   0   0   0   0   0   0   0  10   0   0   1 13 
   2   0  10   0   0   0   0   0   0   0   0   1 22
   9   0   0   0   0   0   0   0   0  10   0   1 22
   9   0   0   0   0   0   0  10   0   0   0   1 22
   4   0   0   0   0   0   0   0   0   0  10   1 22
   2   0   0   0   0   0   0   0   0  10   0   1 22
   7   0   0  10   0   0   0   0   0   0   0   1 22
   9  10   0   0   0   0   0   0   0   0   0   1 22
   8   0   0   0   0   0   0  10   0   0   0   1 22
   1   0  10   0   0   0   0   0   0   0   0   1 22
   0   0   0   0   0   0   0   0   0   0   0   0 
